p cnf 7230 15
-3776 -4891 4892 0
-1 -3778 -3784 -4856 4890 0
4891 -4893 0
1 -4891 0
3778 -4891 0
3784 -4891 0
-4892 4893 0
3776 -4893 0
-4890 4891 0
4856 -4891 0
-4888 4889 0
-4292 -4895 0
-4268 -4895 0
-4252 -4895 0
-2006 -4895 0
